tests = {"test1","test2"};
datFiles = [{"benchmark_data/test/test1/B1.1_new","benchmark_data/test/test3/B1.3_new","benchmark_data/test/test3/B1.4_new","benchmark_data/test/test3/B1.5_new"}, {"benchmark_data/test/test2/B1.2_new"}];
